param n := 60;
param c := 1000;
param : V : p w :=
   0	  33	 485
   1	  55	 256
   2	  31	 259
   3	  26	 491
   4	  18	 251
   5	   2	 258
   6	  99	 353
   7	  97	 312
   8	  52	 335
   9	  60	 498
  10	   8	 250
  11	  89	 252
  12	  88	 361
  13	  28	 293
  14	  54	 346
  15	  10	 378
  16	  40	 252
  17	  13	 370
  18	  73	 451
  19	  95	 256
  20	  65	 293
  21	  11	 439
  22	  19	 269
  23	   4	 292
  24	  13	 453
  25	  43	 263
  26	   2	 284
  27	  21	 398
  28	  67	 259
  29	   7	 343
  30	  48	 391
  31	  16	 255
  32	  91	 354
  33	  82	 462
  34	  60	 252
  35	  28	 286
  36	  28	 363
  37	  64	 254
  38	  62	 383
  39	  78	 381
  40	   1	 278
  41	  47	 341
  42	  10	 454
  43	  80	 251
  44	  58	 295
  45	  57	 356
  46	  24	 283
  47	  18	 361
  48	  93	 453
  49	  85	 272
  50	  36	 275
  51	  90	 357
  52	  64	 275
  53	  64	 368
  54	  25	 468
  55	  87	 250
  56	  66	 282
  57	  56	 352
  58	  12	 280
  59	  71	 368
;

set E :=
   0	   3
   0	   4
   0	   6
   0	   9
   0	  10
   0	  13
   0	  16
   0	  20
   0	  23
   0	  27
   0	  31
   0	  32
   0	  38
   0	  39
   0	  45
   0	  47
   0	  48
   0	  50
   0	  51
   0	  53
   0	  56
   1	   3
   1	   6
   1	   8
   1	   9
   1	  12
   1	  14
   1	  16
   1	  17
   1	  18
   1	  19
   1	  20
   1	  21
   1	  24
   1	  27
   1	  29
   1	  33
   1	  34
   1	  36
   1	  39
   1	  42
   1	  44
   1	  46
   1	  50
   1	  54
   2	   4
   2	   8
   2	  10
   2	  14
   2	  15
   2	  16
   2	  17
   2	  18
   2	  19
   2	  25
   2	  26
   2	  27
   2	  28
   2	  29
   2	  30
   2	  32
   2	  34
   2	  38
   2	  43
   2	  44
   2	  45
   2	  51
   2	  55
   3	   8
   3	   9
   3	  10
   3	  11
   3	  14
   3	  16
   3	  17
   3	  24
   3	  26
   3	  27
   3	  29
   3	  33
   3	  34
   3	  37
   3	  38
   3	  39
   3	  40
   3	  41
   3	  42
   3	  44
   3	  47
   3	  50
   3	  55
   4	   5
   4	   6
   4	  11
   4	  13
   4	  15
   4	  16
   4	  17
   4	  18
   4	  23
   4	  25
   4	  29
   4	  33
   4	  37
   4	  41
   4	  43
   4	  44
   4	  45
   4	  51
   4	  54
   4	  57
   5	   6
   5	   7
   5	   8
   5	   9
   5	  10
   5	  12
   5	  15
   5	  20
   5	  21
   5	  25
   5	  26
   5	  28
   5	  30
   5	  32
   5	  33
   5	  36
   5	  39
   5	  43
   5	  46
   5	  47
   5	  48
   5	  51
   5	  56
   5	  59
   6	   9
   6	  10
   6	  13
   6	  15
   6	  16
   6	  18
   6	  20
   6	  22
   6	  25
   6	  27
   6	  28
   6	  29
   6	  31
   6	  36
   6	  37
   6	  42
   6	  49
   6	  50
   6	  54
   6	  59
   7	  10
   7	  13
   7	  15
   7	  16
   7	  17
   7	  18
   7	  19
   7	  22
   7	  23
   7	  35
   7	  37
   7	  41
   7	  42
   7	  44
   7	  47
   7	  48
   7	  52
   7	  55
   8	  17
   8	  24
   8	  26
   8	  29
   8	  31
   8	  32
   8	  35
   8	  38
   8	  39
   8	  40
   8	  41
   8	  48
   8	  49
   8	  51
   8	  54
   8	  57
   9	  11
   9	  12
   9	  13
   9	  15
   9	  16
   9	  17
   9	  18
   9	  20
   9	  22
   9	  23
   9	  26
   9	  29
   9	  34
   9	  36
   9	  39
   9	  40
   9	  41
   9	  48
   9	  56
   9	  58
   9	  59
  10	  12
  10	  15
  10	  18
  10	  20
  10	  22
  10	  24
  10	  26
  10	  27
  10	  30
  10	  35
  10	  37
  10	  38
  10	  47
  10	  48
  10	  50
  10	  55
  10	  57
  10	  59
  11	  12
  11	  14
  11	  17
  11	  18
  11	  21
  11	  22
  11	  28
  11	  29
  11	  32
  11	  33
  11	  39
  11	  42
  11	  46
  11	  49
  11	  51
  11	  58
  12	  14
  12	  16
  12	  23
  12	  25
  12	  26
  12	  29
  12	  31
  12	  33
  12	  35
  12	  36
  12	  38
  12	  39
  12	  41
  12	  49
  12	  52
  12	  54
  12	  55
  12	  58
  13	  20
  13	  21
  13	  24
  13	  26
  13	  28
  13	  29
  13	  32
  13	  36
  13	  40
  13	  41
  13	  44
  13	  47
  13	  49
  13	  50
  13	  51
  13	  52
  13	  53
  13	  56
  13	  57
  13	  58
  14	  19
  14	  23
  14	  24
  14	  26
  14	  27
  14	  30
  14	  40
  14	  42
  14	  43
  14	  45
  14	  46
  14	  47
  14	  49
  14	  52
  14	  54
  15	  16
  15	  17
  15	  19
  15	  21
  15	  23
  15	  25
  15	  27
  15	  29
  15	  32
  15	  34
  15	  36
  15	  37
  15	  41
  15	  42
  15	  45
  15	  47
  16	  20
  16	  21
  16	  22
  16	  23
  16	  29
  16	  31
  16	  34
  16	  35
  16	  38
  16	  44
  16	  46
  16	  50
  16	  52
  16	  53
  16	  54
  16	  56
  16	  58
  17	  18
  17	  22
  17	  24
  17	  25
  17	  26
  17	  33
  17	  35
  17	  36
  17	  39
  17	  40
  17	  43
  17	  44
  17	  45
  17	  47
  17	  48
  17	  50
  17	  55
  17	  56
  18	  21
  18	  22
  18	  25
  18	  32
  18	  35
  18	  39
  18	  42
  18	  54
  18	  57
  18	  59
  19	  23
  19	  25
  19	  26
  19	  29
  19	  33
  19	  35
  19	  37
  19	  45
  19	  48
  19	  52
  19	  53
  19	  55
  19	  58
  20	  21
  20	  23
  20	  24
  20	  27
  20	  29
  20	  32
  20	  36
  20	  37
  20	  39
  20	  42
  20	  47
  20	  51
  20	  52
  20	  55
  20	  56
  20	  57
  20	  58
  21	  22
  21	  26
  21	  30
  21	  31
  21	  35
  21	  38
  21	  39
  21	  44
  21	  46
  21	  47
  21	  49
  21	  50
  21	  53
  21	  54
  21	  55
  21	  58
  22	  23
  22	  27
  22	  28
  22	  29
  22	  30
  22	  31
  22	  34
  22	  35
  22	  36
  22	  42
  22	  43
  22	  45
  22	  46
  22	  48
  22	  50
  22	  51
  22	  58
  23	  24
  23	  25
  23	  26
  23	  29
  23	  31
  23	  32
  23	  33
  23	  34
  23	  39
  23	  40
  23	  41
  23	  43
  23	  44
  23	  45
  23	  46
  23	  47
  23	  48
  23	  50
  23	  52
  23	  54
  23	  55
  23	  56
  23	  57
  23	  59
  24	  25
  24	  27
  24	  32
  24	  33
  24	  34
  24	  35
  24	  36
  24	  44
  24	  45
  24	  53
  24	  54
  24	  55
  24	  56
  24	  57
  25	  28
  25	  32
  25	  34
  25	  35
  25	  36
  25	  42
  25	  43
  25	  47
  25	  49
  25	  50
  25	  55
  25	  56
  25	  57
  25	  58
  25	  59
  26	  27
  26	  28
  26	  33
  26	  34
  26	  35
  26	  36
  26	  38
  26	  43
  26	  44
  26	  46
  26	  51
  26	  52
  26	  54
  26	  55
  26	  56
  26	  59
  27	  29
  27	  30
  27	  33
  27	  37
  27	  39
  27	  40
  27	  42
  27	  45
  27	  46
  27	  48
  27	  49
  27	  51
  27	  52
  27	  56
  27	  57
  28	  32
  28	  33
  28	  34
  28	  35
  28	  38
  28	  41
  28	  42
  28	  44
  28	  45
  28	  46
  28	  48
  28	  50
  28	  54
  28	  55
  29	  30
  29	  36
  29	  39
  29	  42
  29	  43
  29	  45
  29	  46
  29	  47
  29	  57
  29	  58
  30	  34
  30	  37
  30	  39
  30	  40
  30	  42
  30	  43
  30	  46
  30	  48
  30	  58
  31	  32
  31	  34
  31	  36
  31	  38
  31	  40
  31	  42
  31	  47
  31	  48
  31	  51
  31	  53
  31	  57
  31	  58
  31	  59
  32	  33
  32	  34
  32	  35
  32	  36
  32	  37
  32	  40
  32	  42
  32	  45
  32	  46
  32	  47
  32	  48
  32	  49
  32	  50
  32	  52
  32	  53
  32	  55
  32	  57
  33	  35
  33	  36
  33	  38
  33	  39
  33	  43
  33	  44
  33	  48
  33	  51
  33	  52
  33	  55
  33	  56
  33	  57
  33	  58
  33	  59
  34	  41
  34	  43
  34	  44
  34	  45
  34	  46
  34	  47
  34	  48
  34	  49
  34	  52
  34	  53
  34	  54
  34	  57
  34	  58
  35	  38
  35	  39
  35	  41
  35	  42
  35	  43
  35	  46
  35	  49
  35	  56
  35	  58
  36	  38
  36	  44
  36	  45
  36	  48
  36	  49
  36	  51
  36	  58
  37	  40
  37	  44
  37	  45
  37	  47
  37	  48
  37	  52
  37	  56
  37	  58
  38	  39
  38	  41
  38	  45
  38	  46
  38	  49
  38	  53
  38	  57
  39	  41
  39	  43
  39	  44
  39	  45
  39	  46
  39	  51
  39	  59
  40	  41
  40	  43
  40	  44
  40	  45
  40	  52
  40	  54
  40	  55
  40	  56
  40	  57
  40	  58
  41	  42
  41	  45
  41	  47
  41	  48
  41	  49
  41	  51
  41	  54
  41	  55
  41	  57
  41	  58
  41	  59
  42	  45
  42	  48
  42	  49
  42	  56
  42	  57
  43	  46
  43	  47
  43	  50
  43	  53
  43	  55
  43	  57
  43	  58
  44	  46
  44	  47
  44	  48
  44	  50
  44	  52
  44	  55
  45	  46
  45	  53
  45	  55
  45	  56
  45	  58
  45	  59
  46	  51
  46	  52
  46	  54
  46	  55
  46	  58
  46	  59
  47	  53
  47	  56
  48	  49
  48	  50
  48	  52
  48	  56
  48	  58
  49	  51
  49	  52
  49	  53
  49	  59
  50	  51
  50	  52
  50	  54
  50	  55
  50	  58
  51	  52
  51	  54
  51	  56
  51	  57
  51	  58
  51	  59
  52	  58
  52	  59
  53	  54
  53	  58
  53	  59
  54	  55
  54	  56
  54	  57
  54	  59
  55	  56
  55	  59
  56	  59
  57	  58
  57	  59
;
